8593
1, 22, 31, 18, 21, 23, 50, 20, 16, 29, 30, 42, 2, 7, 17, 3, 45, 41, 19, 8, 10, 9, 43, 33, 11, 51, 12, 27, 13, 52, 14, 47, 26, 28, 25, 4, 6, 5, 15, 38, 40, 39, 37, 24, 48, 46, 44, 34, 36, 35, 32, 49
